NAME: PointSet_Angle_45_5
TYPE: TSP
COMMENT: Points chosen discrete uniformly at random out of ${0, \ldots, 500}^2$.
DIMENSION: 45
EDGE_WEIGHT_TYPE: EUC_2D
NODE_COORD_SECTION
1 7 86
2 270 30
3 224 244
4 302 393
5 387 337
6 339 89
7 477 213
8 148 116
9 262 483
10 331 128
11 278 322
12 300 75
13 51 152
14 490 214
15 59 445
16 156 66
17 277 172
18 96 1
19 416 144
20 394 48
21 482 233
22 137 204
23 446 285
24 66 454
25 13 397
26 81 291
27 465 382
28 366 15
29 280 101
30 230 85
31 292 386
32 151 69
33 304 495
34 70 219
35 138 210
36 13 366
37 443 150
38 316 134
39 181 382
40 334 194
41 278 416
42 485 243
43 43 96
44 4 69
45 198 234
EOF
